proyfinal/src/viki/013/experimentInOfficeAgust.take6.output/28b27984-4c77-4454-b009-aada0a3e61df.als.dat
{'cnf.clauses': '118081',
 'cnf.totvars': '69608',
 'conflict literals': '184',
 'conflicts': '42',
 'decisions': '2560',
 'memused.mb': '15.99',
 'outcome': 'UNSAT',
 'propagations': '76150',
 'restarts': '1',
 'solver.msecs': 34,
 'task.msecs': 184}
