proyfinal/src/viki/013/experimentInOfficeAgust.take6.output/28b27984-4c77-4454-b009-aada0a3e61df.als.out
Reading from standard input... Use '--help' for help.
============================[ Problem Statistics ]=============================
|                                                                             |
|  Number of variables:         69608                                         |
|  Number of clauses:          118081                                         |
|  Parse time:                   0.02 s                                       |
|                                                                             |
============================[ Search Statistics ]==============================
| Conflicts |          ORIGINAL         |          LEARNT          | Progress |
|           |    Vars  Clauses Literals |    Limit  Clauses Lit/Cl |          |
===============================================================================
===============================================================================
restarts              : 1
conflicts             : 42             (1228 /sec)
decisions             : 2560           (0.00 % random) (74871 /sec)
propagations          : 76150          (2227129 /sec)
conflict literals     : 184            (18.94 % deleted)
Memory used           : 15.99 MB
CPU time              : 0.034192 s

UNSATISFIABLE
